1 -1 -2 0
1 -3 -4 0
1 -5 4 0
1 -6 -7 0
1 -6 8 0
1 -6 -9 0
1 10 3 0
1 -11 12 0
1 -2 12 0
1 2 -13 0
1 -14 -15 0
1 9 -16 0
1 -17 7 0
1 -15 18 0
1 -15 -14 0
1 -4 7 0
1 -4 19 0
1 4 18 0
1 20 19 0
1 -21 -22 0
1 22 -23 0
1 -24 25 0
1 -24 -18 0
1 26 -27 0
1 -28 -27 0
1 28 -29 0
1 28 -30 0
1 -27 -16 0
1 31 12 0
1 31 32 0
1 -33 34 0
1 -13 35 0
1 -36 -27 0
1 -16 -37 0
1 12 35 0
1 -12 11 0
1 38 39 0
1 38 12 0
1 -38 -40 0
1 -30 -36 0
1 -30 28 0
1 30 -16 0
1 41 -42 0
1 -43 -44 0
1 -43 -45 0
1 -43 -46 0
1 47 12 0
1 47 -48 0
1 47 -25 0
1 -47 43 0
1 -37 -12 0
1 -37 49 0
1 -50 16 0
1 50 51 0
1 18 52 0
1 18 8 0
1 18 53 0
1 -54 -15 0
1 54 4 0
1 25 -52 0
1 25 -55 0
1 -55 -56 0
1 8 -23 0
1 -8 -54 0
1 44 -57 0
1 -44 54 0
1 52 55 0
1 53 -58 0
1 59 60 0
1 23 59 0
1 57 -61 0
1 -56 62 0
1 56 63 0
1 -56 -57 0
1 -56 64 0
1 -65 57 0
1 -66 58 0
1 -66 23 0
1 -63 -67 0
1 -63 68 0
1 -69 62 0
1 -69 56 0
1 68 -64 0
1 61 64 0
1 -70 -71 0
1 -70 72 0
1 70 69 0
1 73 74 0
1 29 -28 0
1 75 -76 0
1 -77 -75 0
1 -77 -76 0
1 78 -79 0
1 80 29 0
1 81 82 0
1 83 -74 0
1 -83 -84 0
1 -85 86 0
1 85 87 0
1 85 -88 0
1 -85 -89 0
1 85 -90 0
1 -91 -33 0
1 -84 91 0
1 84 86 0
1 -90 -92 0
1 74 83 0
1 93 -88 0
1 -94 43 0
1 95 34 0
1 -88 -39 0
1 88 -96 0
1 -97 -98 0
1 -97 -94 0
1 -87 96 0
1 87 34 0
1 99 100 0
1 -39 -95 0
1 51 -101 0
1 -51 -102 0
1 51 55 0
1 -51 103 0
1 100 104 0
1 -100 -105 0
1 106 107 0
1 48 100 0
1 49 100 0
1 -49 37 0
1 49 -47 0
1 49 32 0
1 108 -109 0
1 -108 110 0
1 -111 -112 0
1 113 -35 0
1 -113 -114 0
1 -113 110 0
1 102 112 0
1 -67 -66 0
1 58 -115 0
1 58 -69 0
1 -58 114 0
1 -116 -117 0
1 116 118 0
1 115 119 0
1 115 -117 0
1 -120 58 0
1 -120 47 0
1 121 122 0
1 -121 123 0
1 -118 -67 0
1 -119 -124 0
1 -72 -125 0
1 -126 127 0
1 126 -128 0
1 126 -116 0
1 124 129 0
1 -124 -123 0
1 124 -130 0
1 -127 131 0
1 132 -126 0
1 -132 -133 0
1 -134 135 0
1 134 136 0
1 -137 -132 0
1 137 131 0
1 -133 -138 0
1 139 127 0
1 -139 132 0
1 140 141 0
1 -142 71 0
1 -142 143 0
1 136 -144 0
1 -136 -143 0
1 -136 -145 0
1 136 140 0
1 -143 -146 0
1 143 -134 0
1 141 -147 0
1 141 134 0
1 71 -140 0
1 148 149 0
1 -149 82 0
1 150 151 0
1 82 78 0
1 79 -152 0
1 -79 -78 0
1 79 153 0
1 -153 92 0
1 154 -155 0
1 -156 77 0
1 156 74 0
1 156 -157 0
1 -158 -159 0
1 158 80 0
1 -158 78 0
1 -160 161 0
1 -92 -162 0
1 92 -161 0
1 -163 103 0
1 159 79 0
1 -159 103 0
1 -162 164 0
1 -162 -157 0
1 165 -166 0
1 -166 86 0
1 98 -101 0
1 -98 167 0
1 98 -168 0
1 103 -169 0
1 -103 170 0
1 103 161 0
1 -103 51 0
1 -167 171 0
1 161 -166 0
1 161 -98 0
1 -161 165 0
1 170 -165 0
1 170 -161 0
1 170 172 0
1 170 -173 0
1 174 87 0
1 -175 107 0
1 -175 171 0
1 -175 -176 0
1 -175 168 0
1 177 178 0
1 177 110 0
1 177 -179 0
1 168 -175 0
1 -168 180 0
1 -168 -174 0
1 168 -181 0
1 -168 -103 0
1 -182 -183 0
1 -176 -184 0
1 -176 185 0
1 -176 -172 0
1 186 96 0
1 -186 -98 0
1 -186 174 0
1 105 -187 0
1 -105 182 0
1 -105 -32 0
1 114 -106 0
1 188 -182 0
1 -188 189 0
1 190 191 0
1 -192 -193 0
1 -194 195 0
1 178 -180 0
1 195 102 0
1 193 192 0
1 -193 196 0
1 193 191 0
1 193 197 0
1 -125 -193 0
1 -125 -118 0
1 104 198 0
1 -191 123 0
1 191 125 0
1 199 -200 0
1 122 196 0
1 -122 124 0
1 123 124 0
1 123 -201 0
1 130 -202 0
1 129 203 0
1 -196 197 0
1 -197 204 0
1 -197 -205 0
1 -206 -113 0
1 206 -207 0
1 208 124 0
1 -208 -140 0
1 -209 -210 0
1 205 211 0
1 205 133 0
1 202 212 0
1 -202 -130 0
1 -210 -213 0
1 -210 -214 0
1 203 205 0
1 -203 129 0
1 215 -216 0
1 214 -202 0
1 217 71 0
1 217 141 0
1 -212 218 0
1 212 219 0
1 212 210 0
1 220 -144 0
1 -220 214 0
1 211 221 0
1 211 -214 0
1 222 -216 0
1 146 144 0
1 -146 71 0
1 223 224 0
1 -223 225 0
1 226 -223 0
1 219 -146 0
1 -227 -217 0
1 -218 -228 0
1 229 -230 0
1 231 229 0
1 -145 -232 0
1 -225 -233 0
1 -225 229 0
1 -234 235 0
1 -164 -153 0
1 236 235 0
1 -235 173 0
1 -151 169 0
1 237 -238 0
1 237 170 0
1 237 -157 0
1 -173 -170 0
1 -173 -237 0
1 239 -179 0
1 -239 -235 0
1 238 -240 0
1 -238 -241 0
1 238 239 0
1 238 172 0
1 -242 240 0
1 242 154 0
1 172 171 0
1 172 -186 0
1 172 -243 0
1 -185 -243 0
1 185 244 0
1 -245 -241 0
1 -243 246 0
1 243 247 0
1 246 248 0
1 246 -240 0
1 184 -249 0
1 -180 -244 0
1 -250 -251 0
1 -250 -252 0
1 -250 -181 0
1 253 -183 0
1 -253 -254 0
1 -253 -244 0
1 244 255 0
1 249 256 0
1 -249 -250 0
1 249 -241 0
1 -254 257 0
1 -254 247 0
1 254 253 0
1 251 257 0
1 -251 -258 0
1 -256 -192 0
1 -256 -183 0
1 201 183 0
1 201 -123 0
1 -201 259 0
1 201 260 0
1 -261 199 0
1 261 249 0
1 261 -181 0
1 -200 262 0
1 181 -200 0
1 -183 -207 0
1 183 -263 0
1 259 -264 0
1 -252 261 0
1 -265 257 0
1 -265 -266 0
1 -265 189 0
1 263 181 0
1 207 267 0
1 207 -206 0
1 207 268 0
1 269 270 0
1 -266 -200 0
1 266 271 0
1 262 200 0
1 272 265 0
1 272 273 0
1 274 -214 0
1 -204 267 0
1 204 -268 0
1 -275 -267 0
1 -275 276 0
1 -275 -268 0
1 -198 277 0
1 -278 204 0
1 278 191 0
1 278 -274 0
1 -267 -279 0
1 -268 207 0
1 -268 -189 0
1 268 274 0
1 -268 -263 0
1 -216 213 0
1 280 -278 0
1 277 281 0
1 276 -277 0
1 -276 282 0
1 283 -206 0
1 -283 213 0
1 -284 -270 0
1 -221 285 0
1 -286 -287 0
1 286 -288 0
1 -286 285 0
1 -228 -288 0
1 -281 -228 0
1 -285 -277 0
1 285 -228 0
1 289 -180 0
1 -290 -291 0
1 290 292 0
1 -293 -294 0
1 -291 -293 0
1 294 295 0
1 -296 292 0
1 297 298 0
1 -299 300 0
1 301 258 0
1 -292 302 0
1 -292 -303 0
1 303 296 0
1 -303 -302 0
1 257 -249 0
1 257 -299 0
1 257 -254 0
1 -300 -301 0
1 -300 299 0
1 300 -304 0
1 -300 263 0
1 -305 248 0
1 304 -258 0
1 298 -306 0
1 248 302 0
1 307 -308 0
1 -309 304 0
1 -310 -305 0
1 -310 311 0
1 312 -273 0
1 313 251 0
1 314 -306 0
1 -315 308 0
1 315 -316 0
1 -315 280 0
1 -315 -317 0
1 -318 -319 0
1 -318 308 0
1 318 316 0
1 -318 320 0
1 -321 314 0
1 321 322 0
1 -321 -279 0
1 321 -311 0
1 -308 -311 0
1 -308 -307 0
1 -320 -314 0
1 320 -323 0
1 -320 324 0
1 320 -307 0
1 323 325 0
1 279 -284 0
1 287 -283 0
1 287 271 0
1 326 -283 0
1 -271 -287 0
1 -327 -287 0
1 -328 329 0
1 302 330 0
1 302 -298 0
1 331 -330 0
1 332 -248 0
1 330 -306 0
1 333 -330 0
1 329 -302 0
1 -334 -333 0
1 306 -313 0
1 306 -304 0
1 -317 335 0
1 319 -336 0
1 -319 -333 0
1 335 319 0
1 335 -306 0
1 -335 -331 0
1 -325 -337 0
1 325 -313 0
1 -338 339 0
1 -324 337 0
1 -340 339 0
1 -337 -319 0
